c Reduced graph for r14 generated by Cyril Grelier
p edge 214 2387
e 1 2
e 1 3
e 1 4
e 1 5
e 1 6
e 1 7
e 1 8
e 1 9
e 1 12
e 1 17
e 1 18
e 1 25
e 1 26
e 1 38
e 1 49
e 1 50
e 1 51
e 1 65
e 1 68
e 1 80
e 1 81
e 1 82
e 1 83
e 1 84
e 1 100
e 1 132
e 1 160
e 2 3
e 2 4
e 2 5
e 2 6
e 2 9
e 2 10
e 2 11
e 2 12
e 2 17
e 2 18
e 2 29
e 2 30
e 2 31
e 2 38
e 2 49
e 2 53
e 2 54
e 2 55
e 2 65
e 2 68
e 2 89
e 2 90
e 2 91
e 2 92
e 2 100
e 2 137
e 3 4
e 3 5
e 3 6
e 3 9
e 3 12
e 3 13
e 3 14
e 3 17
e 3 18
e 3 33
e 3 34
e 3 35
e 3 38
e 3 49
e 3 59
e 3 60
e 3 65
e 3 68
e 3 96
e 3 97
e 3 98
e 3 99
e 3 100
e 3 140
e 3 163
e 4 5
e 4 6
e 4 9
e 4 12
e 4 15
e 4 16
e 4 17
e 4 18
e 4 36
e 4 37
e 4 38
e 4 49
e 4 61
e 4 62
e 4 63
e 4 65
e 4 68
e 4 100
e 4 101
e 4 102
e 4 103
e 4 104
e 4 141
e 4 142
e 5 6
e 5 9
e 5 12
e 5 17
e 5 18
e 5 19
e 5 20
e 5 38
e 5 42
e 5 43
e 5 49
e 5 65
e 5 68
e 5 71
e 5 72
e 5 100
e 5 117
e 5 118
e 5 119
e 5 120
e 5 154
e 5 176
e 6 9
e 6 12
e 6 17
e 6 18
e 6 21
e 6 22
e 6 38
e 6 44
e 6 45
e 6 46
e 6 49
e 6 65
e 6 68
e 6 73
e 6 74
e 6 100
e 6 121
e 6 122
e 6 123
e 6 124
e 6 155
e 7 8
e 7 10
e 7 13
e 7 15
e 7 19
e 7 21
e 7 23
e 7 25
e 7 26
e 7 27
e 7 39
e 7 50
e 7 51
e 7 64
e 7 78
e 7 80
e 7 81
e 7 82
e 7 83
e 7 84
e 7 107
e 7 111
e 7 132
e 7 160
e 7 171
e 8 11
e 8 14
e 8 16
e 8 20
e 8 22
e 8 24
e 8 25
e 8 26
e 8 28
e 8 32
e 8 40
e 8 41
e 8 50
e 8 51
e 8 79
e 8 80
e 8 81
e 8 82
e 8 83
e 8 84
e 8 108
e 8 112
e 8 132
e 8 160
e 9 12
e 9 17
e 9 18
e 9 27
e 9 28
e 9 38
e 9 49
e 9 52
e 9 65
e 9 68
e 9 85
e 9 86
e 9 87
e 9 88
e 9 100
e 9 133
e 9 134
e 9 135
e 9 136
e 9 179
e 10 11
e 10 13
e 10 15
e 10 19
e 10 21
e 10 23
e 10 27
e 10 29
e 10 30
e 10 31
e 10 39
e 10 53
e 10 54
e 10 55
e 10 64
e 10 78
e 10 89
e 10 90
e 10 91
e 10 92
e 10 107
e 10 111
e 10 137
e 10 171
e 11 14
e 11 16
e 11 20
e 11 22
e 11 24
e 11 28
e 11 29
e 11 30
e 11 31
e 11 32
e 11 40
e 11 41
e 11 53
e 11 54
e 11 55
e 11 79
e 11 89
e 11 90
e 11 91
e 11 92
e 11 108
e 11 112
e 11 137
e 12 17
e 12 18
e 12 32
e 12 38
e 12 49
e 12 56
e 12 57
e 12 58
e 12 65
e 12 68
e 12 93
e 12 94
e 12 95
e 12 100
e 12 138
e 12 139
e 12 161
e 12 162
e 12 180
e 13 14
e 13 15
e 13 19
e 13 21
e 13 23
e 13 27
e 13 33
e 13 34
e 13 35
e 13 39
e 13 59
e 13 60
e 13 64
e 13 78
e 13 96
e 13 97
e 13 98
e 13 99
e 13 107
e 13 111
e 13 140
e 13 163
e 13 171
e 14 16
e 14 20
e 14 22
e 14 24
e 14 28
e 14 32
e 14 33
e 14 34
e 14 35
e 14 40
e 14 41
e 14 59
e 14 60
e 14 79
e 14 96
e 14 97
e 14 98
e 14 99
e 14 108
e 14 112
e 14 140
e 14 163
e 15 16
e 15 19
e 15 21
e 15 23
e 15 27
e 15 36
e 15 37
e 15 39
e 15 61
e 15 62
e 15 63
e 15 64
e 15 78
e 15 101
e 15 102
e 15 103
e 15 104
e 15 107
e 15 111
e 15 141
e 15 142
e 15 171
e 16 20
e 16 22
e 16 24
e 16 28
e 16 32
e 16 36
e 16 37
e 16 40
e 16 41
e 16 61
e 16 62
e 16 63
e 16 79
e 16 101
e 16 102
e 16 103
e 16 104
e 16 108
e 16 112
e 16 141
e 16 142
e 17 18
e 17 38
e 17 39
e 17 40
e 17 49
e 17 65
e 17 66
e 17 67
e 17 68
e 17 100
e 17 109
e 17 110
e 17 148
e 17 149
e 17 150
e 17 170
e 17 189
e 18 38
e 18 41
e 18 49
e 18 65
e 18 68
e 18 69
e 18 70
e 18 100
e 18 113
e 18 114
e 18 115
e 18 116
e 18 152
e 18 153
e 18 174
e 18 175
e 19 20
e 19 21
e 19 23
e 19 27
e 19 39
e 19 42
e 19 43
e 19 64
e 19 71
e 19 72
e 19 78
e 19 107
e 19 111
e 19 117
e 19 118
e 19 119
e 19 120
e 19 154
e 19 171
e 19 176
e 20 22
e 20 24
e 20 28
e 20 32
e 20 40
e 20 41
e 20 42
e 20 43
e 20 71
e 20 72
e 20 79
e 20 108
e 20 112
e 20 117
e 20 118
e 20 119
e 20 120
e 20 154
e 20 176
e 21 22
e 21 23
e 21 27
e 21 39
e 21 44
e 21 45
e 21 46
e 21 64
e 21 73
e 21 74
e 21 78
e 21 107
e 21 111
e 21 121
e 21 122
e 21 123
e 21 124
e 21 155
e 21 171
e 22 24
e 22 28
e 22 32
e 22 40
e 22 41
e 22 44
e 22 45
e 22 46
e 22 73
e 22 74
e 22 79
e 22 108
e 22 112
e 22 121
e 22 122
e 22 123
e 22 124
e 22 155
e 23 24
e 23 27
e 23 39
e 23 47
e 23 48
e 23 64
e 23 75
e 23 76
e 23 77
e 23 78
e 23 107
e 23 111
e 23 125
e 23 126
e 23 127
e 23 128
e 23 156
e 23 171
e 23 177
e 24 28
e 24 32
e 24 40
e 24 41
e 24 47
e 24 48
e 24 75
e 24 76
e 24 77
e 24 79
e 24 108
e 24 112
e 24 125
e 24 126
e 24 127
e 24 128
e 24 156
e 24 177
e 25 26
e 25 30
e 25 34
e 25 42
e 25 45
e 25 50
e 25 51
e 25 57
e 25 66
e 25 69
e 25 80
e 25 81
e 25 82
e 25 83
e 25 84
e 25 106
e 25 130
e 25 132
e 25 147
e 25 160
e 25 164
e 25 204
e 26 31
e 26 35
e 26 37
e 26 43
e 26 46
e 26 48
e 26 50
e 26 51
e 26 58
e 26 67
e 26 70
e 26 80
e 26 81
e 26 82
e 26 83
e 26 84
e 26 131
e 26 132
e 26 160
e 26 191
e 26 205
e 27 28
e 27 39
e 27 52
e 27 64
e 27 78
e 27 85
e 27 86
e 27 87
e 27 88
e 27 107
e 27 111
e 27 133
e 27 134
e 27 135
e 27 136
e 27 171
e 27 179
e 28 32
e 28 40
e 28 41
e 28 52
e 28 79
e 28 85
e 28 86
e 28 87
e 28 88
e 28 108
e 28 112
e 28 133
e 28 134
e 28 135
e 28 136
e 28 179
e 29 30
e 29 31
e 29 33
e 29 36
e 29 44
e 29 47
e 29 52
e 29 53
e 29 54
e 29 55
e 29 56
e 29 89
e 29 90
e 29 91
e 29 92
e 29 105
e 29 129
e 29 137
e 29 146
e 29 151
e 29 190
e 29 203
e 30 31
e 30 34
e 30 42
e 30 45
e 30 53
e 30 54
e 30 55
e 30 57
e 30 66
e 30 69
e 30 89
e 30 90
e 30 91
e 30 92
e 30 106
e 30 130
e 30 137
e 30 147
e 30 164
e 30 204
e 31 35
e 31 37
e 31 43
e 31 46
e 31 48
e 31 53
e 31 54
e 31 55
e 31 58
e 31 67
e 31 70
e 31 89
e 31 90
e 31 91
e 31 92
e 31 131
e 31 137
e 31 191
e 31 205
e 32 40
e 32 41
e 32 56
e 32 57
e 32 58
e 32 79
e 32 93
e 32 94
e 32 95
e 32 108
e 32 112
e 32 138
e 32 139
e 32 161
e 32 162
e 32 180
e 33 34
e 33 35
e 33 36
e 33 44
e 33 47
e 33 52
e 33 56
e 33 59
e 33 60
e 33 96
e 33 97
e 33 98
e 33 99
e 33 105
e 33 129
e 33 140
e 33 146
e 33 151
e 33 163
e 33 190
e 33 203
e 34 35
e 34 42
e 34 45
e 34 57
e 34 59
e 34 60
e 34 66
e 34 69
e 34 96
e 34 97
e 34 98
e 34 99
e 34 106
e 34 130
e 34 140
e 34 147
e 34 163
e 34 164
e 34 204
e 35 37
e 35 43
e 35 46
e 35 48
e 35 58
e 35 59
e 35 60
e 35 67
e 35 70
e 35 96
e 35 97
e 35 98
e 35 99
e 35 131
e 35 140
e 35 163
e 35 191
e 35 205
e 36 37
e 36 44
e 36 47
e 36 52
e 36 56
e 36 61
e 36 62
e 36 63
e 36 101
e 36 102
e 36 103
e 36 104
e 36 105
e 36 129
e 36 141
e 36 142
e 36 146
e 36 151
e 36 190
e 36 203
e 37 43
e 37 46
e 37 48
e 37 58
e 37 61
e 37 62
e 37 63
e 37 67
e 37 70
e 37 101
e 37 102
e 37 103
e 37 104
e 37 131
e 37 141
e 37 142
e 37 191
e 37 205
e 38 49
e 38 64
e 38 65
e 38 68
e 38 100
e 38 105
e 38 106
e 38 143
e 38 144
e 38 145
e 38 165
e 38 166
e 38 184
e 38 185
e 38 199
e 39 40
e 39 64
e 39 66
e 39 67
e 39 78
e 39 107
e 39 109
e 39 110
e 39 111
e 39 148
e 39 149
e 39 150
e 39 170
e 39 171
e 39 189
e 40 41
e 40 66
e 40 67
e 40 79
e 40 108
e 40 109
e 40 110
e 40 112
e 40 148
e 40 149
e 40 150
e 40 170
e 40 189
e 41 69
e 41 70
e 41 79
e 41 108
e 41 112
e 41 113
e 41 114
e 41 115
e 41 116
e 41 152
e 41 153
e 41 174
e 41 175
e 42 43
e 42 45
e 42 57
e 42 66
e 42 69
e 42 71
e 42 72
e 42 106
e 42 117
e 42 118
e 42 119
e 42 120
e 42 130
e 42 147
e 42 154
e 42 164
e 42 176
e 42 204
e 43 46
e 43 48
e 43 58
e 43 67
e 43 70
e 43 71
e 43 72
e 43 117
e 43 118
e 43 119
e 43 120
e 43 131
e 43 154
e 43 176
e 43 191
e 43 205
e 44 45
e 44 46
e 44 47
e 44 52
e 44 56
e 44 73
e 44 74
e 44 105
e 44 121
e 44 122
e 44 123
e 44 124
e 44 129
e 44 146
e 44 151
e 44 155
e 44 190
e 44 203
e 45 46
e 45 57
e 45 66
e 45 69
e 45 73
e 45 74
e 45 106
e 45 121
e 45 122
e 45 123
e 45 124
e 45 130
e 45 147
e 45 155
e 45 164
e 45 204
e 46 48
e 46 58
e 46 67
e 46 70
e 46 73
e 46 74
e 46 121
e 46 122
e 46 123
e 46 124
e 46 131
e 46 155
e 46 191
e 46 205
e 47 48
e 47 52
e 47 56
e 47 75
e 47 76
e 47 77
e 47 105
e 47 125
e 47 126
e 47 127
e 47 128
e 47 129
e 47 146
e 47 151
e 47 156
e 47 177
e 47 190
e 47 203
e 48 58
e 48 67
e 48 70
e 48 75
e 48 76
e 48 77
e 48 125
e 48 126
e 48 127
e 48 128
e 48 131
e 48 156
e 48 177
e 48 191
e 48 205
e 49 65
e 49 68
e 49 78
e 49 79
e 49 100
e 49 129
e 49 130
e 49 131
e 49 157
e 49 158
e 49 159
e 49 178
e 49 194
e 50 51
e 50 54
e 50 60
e 50 62
e 50 72
e 50 76
e 50 80
e 50 81
e 50 82
e 50 83
e 50 84
e 50 86
e 50 114
e 50 132
e 50 143
e 50 160
e 50 181
e 50 201
e 50 209
e 51 74
e 51 77
e 51 80
e 51 81
e 51 82
e 51 83
e 51 84
e 51 88
e 51 95
e 51 116
e 51 132
e 51 145
e 51 159
e 51 160
e 51 169
e 51 173
e 51 183
e 51 202
e 52 56
e 52 85
e 52 86
e 52 87
e 52 88
e 52 105
e 52 129
e 52 133
e 52 134
e 52 135
e 52 136
e 52 146
e 52 151
e 52 179
e 52 190
e 52 203
e 53 54
e 53 55
e 53 59
e 53 61
e 53 71
e 53 75
e 53 85
e 53 89
e 53 90
e 53 91
e 53 92
e 53 93
e 53 109
e 53 113
e 53 137
e 53 157
e 53 167
e 53 200
e 54 55
e 54 60
e 54 62
e 54 72
e 54 76
e 54 86
e 54 89
e 54 90
e 54 91
e 54 92
e 54 114
e 54 137
e 54 143
e 54 181
e 54 201
e 54 209
e 55 63
e 55 73
e 55 87
e 55 89
e 55 90
e 55 91
e 55 92
e 55 94
e 55 110
e 55 115
e 55 137
e 55 144
e 55 158
e 55 168
e 55 172
e 55 182
e 56 57
e 56 58
e 56 93
e 56 94
e 56 95
e 56 105
e 56 129
e 56 138
e 56 139
e 56 146
e 56 151
e 56 161
e 56 162
e 56 180
e 56 190
e 56 203
e 57 58
e 57 66
e 57 69
e 57 93
e 57 94
e 57 95
e 57 106
e 57 130
e 57 138
e 57 139
e 57 147
e 57 161
e 57 162
e 57 164
e 57 180
e 57 204
e 58 67
e 58 70
e 58 93
e 58 94
e 58 95
e 58 131
e 58 138
e 58 139
e 58 161
e 58 162
e 58 180
e 58 191
e 58 205
e 59 60
e 59 61
e 59 71
e 59 75
e 59 85
e 59 93
e 59 96
e 59 97
e 59 98
e 59 99
e 59 109
e 59 113
e 59 140
e 59 157
e 59 163
e 59 167
e 59 200
e 60 62
e 60 72
e 60 76
e 60 86
e 60 96
e 60 97
e 60 98
e 60 99
e 60 114
e 60 140
e 60 143
e 60 163
e 60 181
e 60 201
e 60 209
e 61 62
e 61 63
e 61 71
e 61 75
e 61 85
e 61 93
e 61 101
e 61 102
e 61 103
e 61 104
e 61 109
e 61 113
e 61 141
e 61 142
e 61 157
e 61 167
e 61 200
e 62 63
e 62 72
e 62 76
e 62 86
e 62 101
e 62 102
e 62 103
e 62 104
e 62 114
e 62 141
e 62 142
e 62 143
e 62 181
e 62 201
e 62 209
e 63 73
e 63 87
e 63 94
e 63 101
e 63 102
e 63 103
e 63 104
e 63 110
e 63 115
e 63 141
e 63 142
e 63 144
e 63 158
e 63 168
e 63 172
e 63 182
e 64 78
e 64 105
e 64 106
e 64 107
e 64 111
e 64 143
e 64 144
e 64 145
e 64 165
e 64 166
e 64 171
e 64 184
e 64 185
e 64 199
e 65 68
e 65 100
e 65 107
e 65 108
e 65 146
e 65 147
e 65 167
e 65 168
e 65 169
e 65 186
e 65 187
e 65 188
e 66 67
e 66 69
e 66 106
e 66 109
e 66 110
e 66 130
e 66 147
e 66 148
e 66 149
e 66 150
e 66 164
e 66 170
e 66 189
e 66 204
e 67 70
e 67 109
e 67 110
e 67 131
e 67 148
e 67 149
e 67 150
e 67 170
e 67 189
e 67 191
e 67 205
e 68 100
e 68 111
e 68 112
e 68 151
e 68 172
e 68 173
e 68 192
e 68 193
e 68 206
e 68 210
e 69 70
e 69 106
e 69 113
e 69 114
e 69 115
e 69 116
e 69 130
e 69 147
e 69 152
e 69 153
e 69 164
e 69 174
e 69 175
e 69 204
e 70 113
e 70 114
e 70 115
e 70 116
e 70 131
e 70 152
e 70 153
e 70 174
e 70 175
e 70 191
e 70 205
e 71 72
e 71 75
e 71 85
e 71 93
e 71 109
e 71 113
e 71 117
e 71 118
e 71 119
e 71 120
e 71 154
e 71 157
e 71 167
e 71 176
e 71 200
e 72 76
e 72 86
e 72 114
e 72 117
e 72 118
e 72 119
e 72 120
e 72 143
e 72 154
e 72 176
e 72 181
e 72 201
e 72 209
e 73 74
e 73 87
e 73 94
e 73 110
e 73 115
e 73 121
e 73 122
e 73 123
e 73 124
e 73 144
e 73 155
e 73 158
e 73 168
e 73 172
e 73 182
e 74 77
e 74 88
e 74 95
e 74 116
e 74 121
e 74 122
e 74 123
e 74 124
e 74 145
e 74 155
e 74 159
e 74 169
e 74 173
e 74 183
e 74 202
e 75 76
e 75 77
e 75 85
e 75 93
e 75 109
e 75 113
e 75 125
e 75 126
e 75 127
e 75 128
e 75 156
e 75 157
e 75 167
e 75 177
e 75 200
e 76 77
e 76 86
e 76 114
e 76 125
e 76 126
e 76 127
e 76 128
e 76 143
e 76 156
e 76 177
e 76 181
e 76 201
e 76 209
e 77 88
e 77 95
e 77 116
e 77 125
e 77 126
e 77 127
e 77 128
e 77 145
e 77 156
e 77 159
e 77 169
e 77 173
e 77 177
e 77 183
e 77 202
e 78 79
e 78 107
e 78 111
e 78 129
e 78 130
e 78 131
e 78 157
e 78 158
e 78 159
e 78 171
e 78 178
e 78 194
e 79 108
e 79 112
e 79 129
e 79 130
e 79 131
e 79 157
e 79 158
e 79 159
e 79 178
e 79 194
e 80 81
e 80 82
e 80 83
e 80 84
e 80 96
e 80 101
e 80 117
e 80 121
e 80 125
e 80 132
e 80 133
e 80 148
e 80 152
e 80 160
e 80 186
e 80 212
e 81 82
e 81 83
e 81 84
e 81 89
e 81 97
e 81 118
e 81 122
e 81 126
e 81 132
e 81 134
e 81 149
e 81 153
e 81 160
e 81 187
e 81 195
e 82 83
e 82 84
e 82 90
e 82 98
e 82 102
e 82 119
e 82 123
e 82 127
e 82 132
e 82 135
e 82 160
e 82 165
e 82 192
e 82 196
e 83 84
e 83 91
e 83 103
e 83 124
e 83 128
e 83 132
e 83 138
e 83 160
e 83 166
e 83 178
e 83 193
e 83 197
e 83 213
e 84 92
e 84 99
e 84 104
e 84 120
e 84 132
e 84 136
e 84 139
e 84 150
e 84 160
e 84 188
e 84 198
e 84 208
e 85 86
e 85 87
e 85 88
e 85 93
e 85 109
e 85 113
e 85 133
e 85 134
e 85 135
e 85 136
e 85 157
e 85 167
e 85 179
e 85 200
e 86 87
e 86 88
e 86 114
e 86 133
e 86 134
e 86 135
e 86 136
e 86 143
e 86 179
e 86 181
e 86 201
e 86 209
e 87 88
e 87 94
e 87 110
e 87 115
e 87 133
e 87 134
e 87 135
e 87 136
e 87 144
e 87 158
e 87 168
e 87 172
e 87 179
e 87 182
e 88 95
e 88 116
e 88 133
e 88 134
e 88 135
e 88 136
e 88 145
e 88 159
e 88 169
e 88 173
e 88 179
e 88 183
e 88 202
e 89 90
e 89 91
e 89 92
e 89 97
e 89 118
e 89 122
e 89 126
e 89 134
e 89 137
e 89 149
e 89 153
e 89 187
e 89 195
e 90 91
e 90 92
e 90 98
e 90 102
e 90 119
e 90 123
e 90 127
e 90 135
e 90 137
e 90 165
e 90 192
e 90 196
e 91 92
e 91 103
e 91 124
e 91 128
e 91 137
e 91 138
e 91 166
e 91 178
e 91 193
e 91 197
e 91 213
e 92 99
e 92 104
e 92 120
e 92 136
e 92 137
e 92 139
e 92 150
e 92 188
e 92 198
e 92 208
e 93 94
e 93 95
e 93 109
e 93 113
e 93 138
e 93 139
e 93 157
e 93 161
e 93 162
e 93 167
e 93 180
e 93 200
e 94 95
e 94 110
e 94 115
e 94 138
e 94 139
e 94 144
e 94 158
e 94 161
e 94 162
e 94 168
e 94 172
e 94 180
e 94 182
e 95 116
e 95 138
e 95 139
e 95 145
e 95 159
e 95 161
e 95 162
e 95 169
e 95 173
e 95 180
e 95 183
e 95 202
e 96 97
e 96 98
e 96 99
e 96 101
e 96 117
e 96 121
e 96 125
e 96 133
e 96 140
e 96 148
e 96 152
e 96 163
e 96 186
e 96 212
e 97 98
e 97 99
e 97 118
e 97 122
e 97 126
e 97 134
e 97 140
e 97 149
e 97 153
e 97 163
e 97 187
e 97 195
e 98 99
e 98 102
e 98 119
e 98 123
e 98 127
e 98 135
e 98 140
e 98 163
e 98 165
e 98 192
e 98 196
e 99 104
e 99 120
e 99 136
e 99 139
e 99 140
e 99 150
e 99 163
e 99 188
e 99 198
e 99 208
e 100 164
e 100 181
e 100 182
e 100 183
e 100 195
e 100 196
e 100 197
e 100 198
e 100 207
e 101 102
e 101 103
e 101 104
e 101 117
e 101 121
e 101 125
e 101 133
e 101 141
e 101 142
e 101 148
e 101 152
e 101 186
e 101 212
e 102 103
e 102 104
e 102 119
e 102 123
e 102 127
e 102 135
e 102 141
e 102 142
e 102 165
e 102 192
e 102 196
e 103 104
e 103 124
e 103 128
e 103 138
e 103 141
e 103 142
e 103 166
e 103 178
e 103 193
e 103 197
e 103 213
e 104 120
e 104 136
e 104 139
e 104 141
e 104 142
e 104 150
e 104 188
e 104 198
e 104 208
e 105 106
e 105 129
e 105 143
e 105 144
e 105 145
e 105 146
e 105 151
e 105 165
e 105 166
e 105 184
e 105 185
e 105 190
e 105 199
e 105 203
e 106 130
e 106 143
e 106 144
e 106 145
e 106 147
e 106 164
e 106 165
e 106 166
e 106 184
e 106 185
e 106 199
e 106 204
e 107 108
e 107 111
e 107 146
e 107 147
e 107 167
e 107 168
e 107 169
e 107 171
e 107 186
e 107 187
e 107 188
e 108 112
e 108 146
e 108 147
e 108 167
e 108 168
e 108 169
e 108 186
e 108 187
e 108 188
e 109 110
e 109 113
e 109 148
e 109 149
e 109 150
e 109 157
e 109 167
e 109 170
e 109 189
e 109 200
e 110 115
e 110 144
e 110 148
e 110 149
e 110 150
e 110 158
e 110 168
e 110 170
e 110 172
e 110 182
e 110 189
e 111 112
e 111 151
e 111 171
e 111 172
e 111 173
e 111 192
e 111 193
e 111 206
e 111 210
e 112 151
e 112 172
e 112 173
e 112 192
e 112 193
e 112 206
e 112 210
e 113 114
e 113 115
e 113 116
e 113 152
e 113 153
e 113 157
e 113 167
e 113 174
e 113 175
e 113 200
e 114 115
e 114 116
e 114 143
e 114 152
e 114 153
e 114 174
e 114 175
e 114 181
e 114 201
e 114 209
e 115 116
e 115 144
e 115 152
e 115 153
e 115 158
e 115 168
e 115 172
e 115 174
e 115 175
e 115 182
e 116 145
e 116 152
e 116 153
e 116 159
e 116 169
e 116 173
e 116 174
e 116 175
e 116 183
e 116 202
e 117 118
e 117 119
e 117 120
e 117 121
e 117 125
e 117 133
e 117 148
e 117 152
e 117 154
e 117 176
e 117 186
e 117 212
e 118 119
e 118 120
e 118 122
e 118 126
e 118 134
e 118 149
e 118 153
e 118 154
e 118 176
e 118 187
e 118 195
e 119 120
e 119 123
e 119 127
e 119 135
e 119 154
e 119 165
e 119 176
e 119 192
e 119 196
e 120 136
e 120 139
e 120 150
e 120 154
e 120 176
e 120 188
e 120 198
e 120 208
e 121 122
e 121 123
e 121 124
e 121 125
e 121 133
e 121 148
e 121 152
e 121 155
e 121 186
e 121 212
e 122 123
e 122 124
e 122 126
e 122 134
e 122 149
e 122 153
e 122 155
e 122 187
e 122 195
e 123 124
e 123 127
e 123 135
e 123 155
e 123 165
e 123 192
e 123 196
e 124 128
e 124 138
e 124 155
e 124 166
e 124 178
e 124 193
e 124 197
e 124 213
e 125 126
e 125 127
e 125 128
e 125 133
e 125 148
e 125 152
e 125 156
e 125 177
e 125 186
e 125 212
e 126 127
e 126 128
e 126 134
e 126 149
e 126 153
e 126 156
e 126 177
e 126 187
e 126 195
e 127 128
e 127 135
e 127 156
e 127 165
e 127 177
e 127 192
e 127 196
e 128 138
e 128 156
e 128 166
e 128 177
e 128 178
e 128 193
e 128 197
e 128 213
e 129 130
e 129 131
e 129 146
e 129 151
e 129 157
e 129 158
e 129 159
e 129 178
e 129 190
e 129 194
e 129 203
e 130 131
e 130 147
e 130 157
e 130 158
e 130 159
e 130 164
e 130 178
e 130 194
e 130 204
e 131 157
e 131 158
e 131 159
e 131 178
e 131 191
e 131 194
e 131 205
e 132 140
e 132 142
e 132 156
e 132 160
e 132 162
e 132 170
e 132 175
e 132 185
e 132 206
e 132 207
e 133 134
e 133 135
e 133 136
e 133 148
e 133 152
e 133 179
e 133 186
e 133 212
e 134 135
e 134 136
e 134 149
e 134 153
e 134 179
e 134 187
e 134 195
e 135 136
e 135 165
e 135 179
e 135 192
e 135 196
e 136 139
e 136 150
e 136 179
e 136 188
e 136 198
e 136 208
e 137 141
e 137 154
e 137 155
e 137 161
e 137 174
e 137 184
e 137 194
e 137 211
e 137 214
e 138 139
e 138 161
e 138 162
e 138 166
e 138 178
e 138 180
e 138 193
e 138 197
e 138 213
e 139 150
e 139 161
e 139 162
e 139 180
e 139 188
e 139 198
e 139 208
e 140 142
e 140 156
e 140 162
e 140 163
e 140 170
e 140 175
e 140 185
e 140 206
e 140 207
e 141 142
e 141 154
e 141 155
e 141 161
e 141 174
e 141 184
e 141 194
e 141 211
e 141 214
e 142 156
e 142 162
e 142 170
e 142 175
e 142 185
e 142 206
e 142 207
e 143 144
e 143 145
e 143 165
e 143 166
e 143 181
e 143 184
e 143 185
e 143 199
e 143 201
e 143 209
e 144 145
e 144 158
e 144 165
e 144 166
e 144 168
e 144 172
e 144 182
e 144 184
e 144 185
e 144 199
e 145 159
e 145 165
e 145 166
e 145 169
e 145 173
e 145 183
e 145 184
e 145 185
e 145 199
e 145 202
e 146 147
e 146 151
e 146 167
e 146 168
e 146 169
e 146 186
e 146 187
e 146 188
e 146 190
e 146 203
e 147 164
e 147 167
e 147 168
e 147 169
e 147 186
e 147 187
e 147 188
e 147 204
e 148 149
e 148 150
e 148 152
e 148 170
e 148 186
e 148 189
e 148 212
e 149 150
e 149 153
e 149 170
e 149 187
e 149 189
e 149 195
e 150 170
e 150 188
e 150 189
e 150 198
e 150 208
e 151 172
e 151 173
e 151 190
e 151 192
e 151 193
e 151 203
e 151 206
e 151 210
e 152 153
e 152 174
e 152 175
e 152 186
e 152 212
e 153 174
e 153 175
e 153 187
e 153 195
e 154 155
e 154 161
e 154 174
e 154 176
e 154 184
e 154 194
e 154 211
e 154 214
e 155 161
e 155 174
e 155 184
e 155 194
e 155 211
e 155 214
e 156 162
e 156 170
e 156 175
e 156 177
e 156 185
e 156 206
e 156 207
e 157 158
e 157 159
e 157 167
e 157 178
e 157 194
e 157 200
e 158 159
e 158 168
e 158 172
e 158 178
e 158 182
e 158 194
e 159 169
e 159 173
e 159 178
e 159 183
e 159 194
e 159 202
e 160 163
e 160 176
e 160 177
e 160 179
e 160 180
e 160 189
e 160 199
e 160 210
e 161 162
e 161 174
e 161 180
e 161 184
e 161 194
e 161 211
e 161 214
e 162 170
e 162 175
e 162 180
e 162 185
e 162 206
e 162 207
e 163 176
e 163 177
e 163 179
e 163 180
e 163 189
e 163 199
e 163 210
e 164 181
e 164 182
e 164 183
e 164 195
e 164 196
e 164 197
e 164 198
e 164 204
e 164 207
e 165 166
e 165 184
e 165 185
e 165 192
e 165 196
e 165 199
e 166 178
e 166 184
e 166 185
e 166 193
e 166 197
e 166 199
e 166 213
e 167 168
e 167 169
e 167 186
e 167 187
e 167 188
e 167 200
e 168 169
e 168 172
e 168 182
e 168 186
e 168 187
e 168 188
e 169 173
e 169 183
e 169 186
e 169 187
e 169 188
e 169 202
e 170 175
e 170 185
e 170 189
e 170 206
e 170 207
e 171 190
e 171 191
e 171 200
e 171 201
e 171 202
e 171 208
e 171 211
e 172 173
e 172 182
e 172 192
e 172 193
e 172 206
e 172 210
e 173 183
e 173 192
e 173 193
e 173 202
e 173 206
e 173 210
e 174 175
e 174 184
e 174 194
e 174 211
e 174 214
e 175 185
e 175 206
e 175 207
e 176 177
e 176 179
e 176 180
e 176 189
e 176 199
e 176 210
e 177 179
e 177 180
e 177 189
e 177 199
e 177 210
e 178 193
e 178 194
e 178 197
e 178 213
e 179 180
e 179 189
e 179 199
e 179 210
e 180 189
e 180 199
e 180 210
e 181 182
e 181 183
e 181 195
e 181 196
e 181 197
e 181 198
e 181 201
e 181 207
e 181 209
e 182 183
e 182 195
e 182 196
e 182 197
e 182 198
e 182 207
e 183 195
e 183 196
e 183 197
e 183 198
e 183 202
e 183 207
e 184 185
e 184 194
e 184 199
e 184 211
e 184 214
e 185 199
e 185 206
e 185 207
e 186 187
e 186 188
e 186 212
e 187 188
e 187 195
e 188 198
e 188 208
e 189 199
e 189 210
e 190 191
e 190 200
e 190 201
e 190 202
e 190 203
e 190 208
e 190 211
e 191 200
e 191 201
e 191 202
e 191 205
e 191 208
e 191 211
e 192 193
e 192 196
e 192 206
e 192 210
e 193 197
e 193 206
e 193 210
e 193 213
e 194 211
e 194 214
e 195 196
e 195 197
e 195 198
e 195 207
e 196 197
e 196 198
e 196 207
e 197 198
e 197 207
e 197 213
e 198 207
e 198 208
e 199 210
e 200 201
e 200 202
e 200 208
e 200 211
e 201 202
e 201 208
e 201 209
e 201 211
e 202 208
e 202 211
e 203 204
e 203 205
e 203 209
e 203 212
e 203 213
e 203 214
e 204 205
e 204 209
e 204 212
e 204 213
e 204 214
e 205 209
e 205 212
e 205 213
e 205 214
e 206 207
e 206 210
e 208 211
e 209 212
e 209 213
e 209 214
e 211 214
e 212 213
e 212 214
e 213 214
